data/solutions/planning/wellformed/moderate/sequential/wellformed_moderate_instance71_cplex.sol
Elapsed time: 0.65
Nodes explored: -
Nodes left: -
Relative gap: -
Upper bound: 316379.0
Lower bound: -
C[0]=10206.0
C[1]=10206.0
C[2]=10205.0
C[3]=10205.0
C[4]=10205.0
y[0]=1
y[1]=3
y[2]=2
y[3]=3
y[4]=4
y[5]=1
y[6]=2
y[7]=3
y[8]=4
y[9]=3
y[10]=4
y[11]=1
y[12]=1
y[13]=3
y[14]=2
y[15]=4
y[16]=2
y[17]=0
y[18]=4
y[19]=3
y[20]=0
y[21]=4
y[22]=3
y[23]=3
y[24]=2
y[25]=4
y[26]=2
y[27]=2
y[28]=4
y[29]=0
y[30]=0
y[31]=0
y[32]=3
y[33]=1
y[34]=1
y[35]=1
y[36]=1
y[37]=4
y[38]=1
y[39]=0
y[40]=0
y[41]=0
y[42]=1
y[43]=2
y[44]=2
y[45]=0
y[46]=0
y[47]=3
y[48]=4
y[49]=2
